n_res = 3;
rcap = [16, 87, 79];
rtype = [1, 2, 2];
n_tasks = 16;
modes = [ {1, 2, 3}, {4, 5, 6}, {7, 8, 9}, {10, 11, 12}, {13, 14, 15}, {16, 17, 18}, {19, 20, 21}, {22, 23, 24}, {25, 26, 27}, {28, 29, 30}, {31, 32, 33}, {34, 35, 36}, {37, 38, 39}, {40, 41, 42}, {43, 44, 45}, {46, 47, 48} ];
succ = [ {9, 11}, {6, 8, 14}, {4, 5}, {7, 10, 11}, {16}, {7, 10, 11}, {9, 12, 13}, {9, 12}, {15}, {13, 15}, {12, 13}, {15, 16}, {16}, {}, {}, {} ];
n_opt = 48;
dur = [8, 8, 8, 5, 5, 6, 5, 8, 10, 1, 2, 8, 6, 8, 10, 1, 4, 7, 1, 4, 10, 2, 2, 7, 3, 8, 9, 2, 5, 10, 2, 2, 6, 2, 4, 6, 6, 7, 8, 5, 6, 10, 2, 6, 7, 5, 9, 10];
rreq = [|  8,  0,  0,  5,  0,  6,  6,  0,  0,  0,  0,  0,  6,  6,  0,  8,  5,  0,  0,  0,  0,  9,  0,  0,  9,  8,  8,  8,  7,  5,  2,  0,  0,  9,  4,  1,  7,  0,  0,  0,  0,  8,  3,  0,  0,  4,  3,  0
        |  5,  6,  7,  6,  8,  6,  7,  7,  6,  9,  8,  6,  5,  4,  1,  7,  7,  7,  7,  4,  3, 10, 10, 10,  6,  5,  5, 10,  9,  7,  5,  6,  2,  8,  6,  1,  7,  7,  3, 10, 10, 10,  3,  3,  1,  8,  5,  3
        |  4,  5,  4,  3,  3,  2, 10,  6,  5,  9,  9,  8,  9,  9,  8,  4,  3,  2,  5,  5,  4,  5,  6,  3,  7,  6,  4,  5,  4,  1,  6,  8,  4,  8,  5,  2, 10,  8,  6,  6,  3,  2,  9,  5,  3,  9,  9,  9 |];
